outputs/case_290.smt2
; SMT2 file generated from compliance case automatic
; Case ID: case_290
; Generated at: 2025-10-21T06:27:38.099016
;
; This file can be executed with Z3:
;   z3 case_290.smt2
;

(set-logic ALL)

; ============================================================
; Variable Declarations
; ============================================================

(declare-const bank_violation Bool)
(declare-const business_guidance_necessary Bool)
(declare-const business_guidance_needed Bool)
(declare-const correction_and_improvement_ordered Bool)
(declare-const correction_ordered Bool)
(declare-const notify_registration_authority Bool)
(declare-const order_branch_closure Bool)
(declare-const order_director_supervisor_dismissal_or_suspension Bool)
(declare-const order_manager_staff_dismissal_or_suspension Bool)
(declare-const order_or_prohibit_asset_disposition Bool)
(declare-const order_provision_reserve_fund Bool)
(declare-const other_necessary_measures Bool)
(declare-const penalty Bool)
(declare-const penalty_measures Bool)
(declare-const registration_authority_notified Bool)
(declare-const restrict_investment Bool)
(declare-const revoke_statutory_meeting_resolution Bool)
(declare-const suspend_partial_business Bool)
(declare-const violation_occurred Bool)

; ============================================================
; Constraints (Legal Rules)
; ============================================================

; [bank:violation_occurred] 銀行違反法令、章程或有礙健全經營之虞
(assert (= violation_occurred bank_violation))

; [bank:correction_ordered] 主管機關已予以糾正並命其限期改善
(assert (= correction_ordered correction_and_improvement_ordered))

; [bank:penalty_measures] 主管機關依情節輕重採取處分措施
(assert (= penalty_measures
   (or order_manager_staff_dismissal_or_suspension
       order_provision_reserve_fund
       order_branch_closure
       other_necessary_measures
       order_director_supervisor_dismissal_or_suspension
       order_or_prohibit_asset_disposition
       revoke_statutory_meeting_resolution
       suspend_partial_business
       restrict_investment)))

; [bank:notify_registration_authority] 解除董事、監察人職務時通知公司登記主管機關撤銷或廢止其登記
(assert (= notify_registration_authority
   (or registration_authority_notified
       (not order_director_supervisor_dismissal_or_suspension))))

; [bank:business_guidance_needed] 為改善銀行營運缺失有業務輔導必要
(assert (= business_guidance_needed business_guidance_necessary))

; [meta:penalty_default_false] 預設不處罰
(assert (not penalty))

; [meta:penalty_conditions] 處罰條件：銀行違反法令或章程且未接受主管機關處分時處罰
(assert (= penalty (and violation_occurred (not penalty_measures))))

; ============================================================
; Facts (Case Specific)
; ============================================================

(assert (= bank_violation true))
(assert (= violation_occurred true))
(assert (= correction_and_improvement_ordered true))
(assert (= correction_ordered true))
(assert (= restrict_investment true))
(assert (= penalty_measures true))
(assert (= penalty false))
(assert (= business_guidance_necessary false))
(assert (= business_guidance_needed false))
(assert (= revoke_statutory_meeting_resolution false))
(assert (= suspend_partial_business false))
(assert (= order_or_prohibit_asset_disposition false))
(assert (= order_branch_closure false))
(assert (= order_manager_staff_dismissal_or_suspension false))
(assert (= order_director_supervisor_dismissal_or_suspension false))
(assert (= notify_registration_authority false))
(assert (= registration_authority_notified false))
(assert (= other_necessary_measures false))

; ============================================================
; Check Satisfiability
; ============================================================

(check-sat)
(get-model)

; ============================================================
; Additional Information
; ============================================================
; Total constraints: 7
; Total variables: 19
; Total facts: 18
;
; Expected result:
;   - If UNSAT: Case violates legal rules
;   - If SAT: Case complies with legal rules (or error in constraints)
