outputs/case_290.model.txt
order_manager_staff_dismissal_or_suspension = False
order_provision_reserve_fund = True
order_branch_closure = False
other_necessary_measures = False
order_director_supervisor_dismissal_or_suspension = False
order_or_prohibit_asset_disposition = False
revoke_statutory_meeting_resolution = False
suspend_partial_business = False
restrict_investment = True
bank_violation = True
correction_and_improvement_ordered = True
registration_authority_notified = False
business_guidance_necessary = False
penalty_measures = True
correction_ordered = True
penalty = False
notify_registration_authority = True
violation_occurred = True
business_guidance_needed = False